param Cities := 7;

param: Arcs: ArcCost :=
	1 2 0.1		1 4 0.2		1 6 0.05
	2 4 0.13	2 6 0.15
	3 1 0.4		3 5 0.12	3 7 0.08
	4 3 0.12	4 5 0.12
	5 2 0.21	5 6 0.1		5 7 0.2
	6 3 0.11	6 4 0.18	6 7 0.07
	7 1 0.2		7 4 0.15;

param: 		PlantCost 	Population :=
	1	1100000		55
	2	1200000		100
	3	2000000		45
	4	1600000		90
	5	1800000		70
	6	 900000		60
	7	1300000		30;

param Outflow := 450;

param PlantCapacity := 80000;

param ExpandedPlantCity := 3;
param ExpandedPlantSize := 130000;
param ExpandedPlantMinimum := 110000;
param ExpandedPlantCost := 3000000;

param PipelineProportion := 0.25;
